solution status: time limit reached
objective value:                         165304.58303
y#2                                                 1 	(obj:5700)
y#4                                                 1 	(obj:5700)
y#6                                                 1 	(obj:5700)
y#7                                                 1 	(obj:5700)
y#10                                                1 	(obj:5700)
y#13                                                1 	(obj:5700)
y#15                                                1 	(obj:5700)
y#17                                                1 	(obj:5700)
y#18                                                1 	(obj:5700)
y#20                                                1 	(obj:5700)
y#22                                                1 	(obj:5700)
y#23                                                1 	(obj:5700)
y#24                                                1 	(obj:5700)
y#25                                                1 	(obj:5700)
y#26                                                1 	(obj:5700)
y#28                                                1 	(obj:5700)
y#29                                                1 	(obj:5700)
y#30                                                1 	(obj:5700)
y#31                                                1 	(obj:5700)
y#32                                                1 	(obj:5700)
y#33                                                1 	(obj:5700)
y#36                                                1 	(obj:5700)
y#37                                                1 	(obj:5700)
y#39                                                1 	(obj:5700)
y#40                                                1 	(obj:5700)
y#41                                                1 	(obj:5700)
y#42                                                1 	(obj:5700)
y#43                                                1 	(obj:5700)
y#45                                                1 	(obj:5700)
x#1#10                                              1 	(obj:0.00731)
x#2#4                                               1 	(obj:0.00884)
x#3#23                                              1 	(obj:0.02091)
x#4#45                                              1 	(obj:0.01207)
x#5#13                                              1 	(obj:0.00561)
x#6#6                                               1 	(obj:0.01173)
x#7#39                                              1 	(obj:0.0153)
x#8#6                                               1 	(obj:0.03247)
x#9#22                                              1 	(obj:0.02142)
x#10#24                                             1 	(obj:0.02278)
x#11#24                                             1 	(obj:0.00153)
x#12#4                                              1 	(obj:0.00952)
x#13#26                                             1 	(obj:0.02669)
x#14#28                                             1 	(obj:0.01088)
x#15#2                                              1 	(obj:0.00986)
x#16#10                                             1 	(obj:0.01224)
x#17#6                                              1 	(obj:0.00935)
x#18#7                                              1 	(obj:0.0051)
x#19#23                                             1 	(obj:0.00867)
x#20#30                                             1 	(obj:0.0034)
x#21#22                                             1 	(obj:0.01666)
x#22#45                                             1 	(obj:0.01156)
x#23#20                                             1 	(obj:0.02193)
x#24#31                                             1 	(obj:0.01564)
x#25#17                                             1 	(obj:0.01037)
x#26#36                                             1 	(obj:0.00408)
x#27#20                                             1 	(obj:0.017)
x#28#39                                             1 	(obj:0.01326)
x#29#10                                             1 	(obj:0.04182)
x#30#43                                             1 	(obj:0.01564)
x#31#23                                             1 	(obj:0.00357)
x#32#13                                             1 	(obj:0.00136)
x#33#39                                             1 	(obj:0.00901)
x#34#42                                             1 	(obj:0.01309)
x#35#18                                             1 	(obj:0.0136)
x#36#20                                             1 	(obj:0.02652)
x#37#43                                             1 	(obj:0.01615)
x#38#6                                              1 	(obj:0.017)
x#39#20                                             1 	(obj:0.02329)
x#40#37                                             1 	(obj:0.01292)
x#41#29                                             1 	(obj:0.00204)
x#42#10                                             1 	(obj:0.03842)
x#43#43                                             1 	(obj:0.00901)
x#44#26                                             1 	(obj:0.01598)
x#45#2                                              1 	(obj:0.01921)
x#46#41                                             1 	(obj:0.02465)
x#47#31                                             1 	(obj:0.01343)
x#48#17                                             1 	(obj:0.01054)
x#49#7                                              1 	(obj:0.01411)
x#50#25                                             1 	(obj:0.01088)
x#51#31                                             1 	(obj:0.00544)
x#52#31                                             1 	(obj:0.00238)
x#53#28                                             1 	(obj:0.00731)
x#54#4                                              1 	(obj:0.01275)
x#55#7                                              1 	(obj:0.02125)
x#56#24                                             1 	(obj:0.00629)
x#57#39                                             1 	(obj:0.01615)
x#58#43                                             1 	(obj:0.02278)
x#59#32                                             1 	(obj:0.01802)
x#60#13                                             1 	(obj:0.02601)
x#61#43                                             1 	(obj:0.0255)
x#62#7                                              1 	(obj:0.00748)
x#63#4                                              1 	(obj:0.01462)
x#64#37                                             1 	(obj:0.02227)
x#65#2                                              1 	(obj:0.00833)
x#66#41                                             1 	(obj:0.02295)
x#67#25                                             1 	(obj:0.00578)
x#68#43                                             1 	(obj:0.01428)
x#69#26                                             1 	(obj:0.00408)
x#70#43                                             1 	(obj:0.01105)
x#71#24                                             1 	(obj:0.00408)
x#72#39                                             1 	(obj:0.02567)
x#73#36                                             1 	(obj:0.01785)
x#74#25                                             1 	(obj:0.01955)
x#75#18                                             1 	(obj:0.01632)
x#76#42                                             1 	(obj:0.01598)
x#77#25                                             1 	(obj:0.01054)
x#78#22                                             1 	(obj:0.02516)
x#79#20                                             1 	(obj:0.02567)
x#80#2                                              1 	(obj:0.02907)
x#81#36                                             1 	(obj:0.00272)
x#82#10                                             1 	(obj:0.00714)
x#83#6                                              1 	(obj:0.01768)
x#84#25                                             1 	(obj:0.02091)
x#85#13                                             1 	(obj:0.0068)
x#86#40                                             1 	(obj:0.01768)
x#87#32                                             1 	(obj:0.00952)
x#88#29                                             1 	(obj:0.01411)
x#89#31                                             1 	(obj:0.02159)
x#90#4                                              1 	(obj:0.01547)
x#91#36                                             1 	(obj:0.0051)
x#92#18                                             1 	(obj:0.00884)
x#93#17                                             1 	(obj:0.01564)
x#94#29                                             1 	(obj:0.00289)
x#95#25                                             1 	(obj:0.02159)
x#96#17                                             1 	(obj:0.00935)
x#97#45                                             1 	(obj:0.01887)
x#98#42                                             1 	(obj:0.02516)
x#99#28                                             1 	(obj:0.01122)
x#100#24                                            1 	(obj:0.01768)
x#101#6                                             1 	(obj:0.00238)
x#102#15                                            1 	(obj:0.01343)
x#103#6                                             1 	(obj:0.02346)
x#104#22                                            1 	(obj:0.01326)
x#105#39                                            1 	(obj:0.01377)
x#106#10                                            1 	(obj:0.0255)
x#107#41                                            1 	(obj:0.0136)
x#108#36                                            1 	(obj:0.01564)
x#109#41                                            1 	(obj:0.02125)
x#110#41                                            1 	(obj:0.03859)
x#111#31                                            1 	(obj:0.02975)
x#112#20                                            1 	(obj:0.00799)
x#113#22                                            1 	(obj:0.01428)
x#114#2                                             1 	(obj:0.03451)
x#115#40                                            1 	(obj:0.02091)
x#116#24                                            1 	(obj:0.0034)
x#117#25                                            1 	(obj:0.01445)
x#118#23                                            1 	(obj:0.01598)
x#119#6                                             1 	(obj:0.00816)
x#120#29                                            1 	(obj:0.01224)
x#121#40                                            1 	(obj:0.01394)
x#122#10                                            1 	(obj:0.00085)
x#123#32                                            1 	(obj:0.03128)
x#124#15                                            1 	(obj:0.01207)
x#125#28                                            1 	(obj:0.01802)
x#126#36                                            1 	(obj:0.01003)
x#127#26                                            1 	(obj:0.01326)
x#128#31                                            1 	(obj:0.01683)
x#129#13                                            1 	(obj:0.02924)
x#130#30                                            1 	(obj:0.02448)
x#131#20                                            1 	(obj:0.00969)
x#132#29                                            1 	(obj:0.01751)
x#133#39                                            1 	(obj:0.0187)
x#134#15                                            1 	(obj:0.00816)
x#135#20                                            1 	(obj:0.017)
x#136#37                                            1 	(obj:0.0085)
x#137#33                                            1 	(obj:0.017)
x#138#24                                            1 	(obj:0.00782)
x#139#39                                            1 	(obj:0.00595)
x#140#29                                            1 	(obj:0.01513)
x#141#22                                            1 	(obj:0.01156)
x#142#30                                            1 	(obj:0.03434)
x#143#36                                            1 	(obj:0.01921)
x#144#10                                            1 	(obj:0.01462)
x#145#25                                            1 	(obj:0.01445)
x#146#28                                            1 	(obj:0.00731)
x#147#32                                            1 	(obj:0.02567)
x#148#22                                            1 	(obj:0.02533)
x#149#26                                            1 	(obj:0.02856)
x#150#30                                            1 	(obj:0.01564)
x#151#15                                            1 	(obj:0.00935)
x#152#24                                            1 	(obj:0.02992)
x#153#6                                             1 	(obj:0.01003)
x#154#28                                            1 	(obj:0.01054)
x#155#2                                             1 	(obj:0.02159)
x#156#26                                            1 	(obj:0.02244)
x#157#30                                            1 	(obj:0.02057)
x#158#31                                            1 	(obj:0.02703)
x#159#40                                            1 	(obj:0.0153)
x#160#45                                            1 	(obj:0.01615)
x#161#4                                             1 	(obj:0.01156)
x#162#6                                             1 	(obj:0.01241)
x#163#36                                            1 	(obj:0.00884)
x#164#29                                            1 	(obj:0.0102)
x#165#20                                            1 	(obj:0.00833)
x#166#4                                             1 	(obj:0.01003)
x#167#2                                             1 	(obj:0.00527)
x#168#2                                             1 	(obj:0.01683)
x#169#26                                            1 	(obj:0.02244)
x#170#4                                             1 	(obj:0.01173)
x#171#10                                            1 	(obj:0.0119)
x#172#13                                            1 	(obj:0.02924)
x#173#40                                            1 	(obj:0.00918)
x#174#30                                            1 	(obj:0.01479)
x#175#30                                            1 	(obj:0.01683)
x#176#7                                             1 	(obj:0.01258)
x#177#7                                             1 	(obj:0.01411)
x#178#24                                            1 	(obj:0.04471)
x#179#7                                             1 	(obj:0.01938)
x#180#24                                            1 	(obj:0.01394)
x#181#25                                            1 	(obj:0.0153)
x#182#15                                            1 	(obj:0.01496)
x#183#2                                             1 	(obj:0.01105)
x#184#17                                            1 	(obj:0.02108)
x#185#13                                            1 	(obj:0.01853)
x#186#30                                            1 	(obj:0.01088)
x#187#10                                            1 	(obj:0.0136)
x#188#32                                            1 	(obj:0.01105)
x#189#30                                            1 	(obj:0.02516)
x#190#31                                            1 	(obj:0.0238)
x#191#22                                            1 	(obj:0.02482)
x#192#24                                            1 	(obj:0.00918)
x#193#7                                             1 	(obj:0.00748)
x#194#31                                            1 	(obj:0.01173)
x#195#32                                            1 	(obj:0.00459)
x#196#15                                            1 	(obj:0.01564)
x#197#18                                            1 	(obj:0.01462)
x#198#15                                            1 	(obj:0.00918)
x#199#43                                            1 	(obj:0.02227)
x#200#33                                            1 	(obj:0.00238)
x#201#33                                            1 	(obj:0.01785)
x#202#13                                            1 	(obj:0.0204)
x#203#33                                            1 	(obj:0.00459)
x#204#18                                            1 	(obj:0.0119)
x#205#18                                            1 	(obj:0.0085)
x#206#2                                             1 	(obj:0.02907)
x#207#17                                            1 	(obj:0.01649)
x#208#28                                            1 	(obj:0.01972)
x#209#13                                            1 	(obj:0.01003)
x#210#39                                            1 	(obj:0.02023)
x#211#39                                            1 	(obj:0.0119)
x#212#41                                            1 	(obj:0.00969)
x#213#20                                            1 	(obj:0.00799)
x#214#2                                             1 	(obj:0.01581)
x#215#28                                            1 	(obj:0.00612)
x#216#22                                            1 	(obj:0.02652)
x#217#36                                            1 	(obj:0.0153)
x#218#26                                            1 	(obj:0.01819)
x#219#36                                            1 	(obj:0.02363)
x#220#22                                            1 	(obj:0.01989)
x#221#20                                            1 	(obj:0.00833)
x#222#13                                            1 	(obj:0.01088)
x#223#33                                            1 	(obj:0.01394)
x#224#18                                            1 	(obj:0.00663)
x#225#45                                            1 	(obj:0.01802)
x#226#37                                            1 	(obj:0.00476)
x#227#41                                            1 	(obj:0.03468)
x#228#43                                            1 	(obj:0.00544)
x#229#40                                            1 	(obj:0.02125)
x#230#41                                            1 	(obj:0.02125)
x#231#40                                            1 	(obj:0.00833)
x#232#28                                            1 	(obj:0.01122)
x#233#18                                            1 	(obj:0.0085)
x#234#7                                             1 	(obj:0.02278)
x#235#10                                            1 	(obj:0.02465)
x#236#29                                            1 	(obj:0.00476)
x#237#15                                            1 	(obj:0.01411)
x#238#37                                            1 	(obj:0.00799)
x#239#23                                            1 	(obj:0.0085)
x#240#41                                            1 	(obj:0.02023)
x#241#23                                            1 	(obj:0.01479)
x#242#26                                            1 	(obj:0.02584)
x#243#43                                            1 	(obj:0.01479)
x#244#6                                             1 	(obj:0.01496)
x#245#32                                            1 	(obj:0.02414)
x#246#10                                            1 	(obj:0.01224)
x#247#15                                            1 	(obj:0.00816)
x#248#41                                            1 	(obj:0.0051)
x#249#39                                            1 	(obj:0.01479)
x#250#20                                            1 	(obj:0.00697)
x#251#45                                            1 	(obj:0.00663)
x#252#7                                             1 	(obj:0.01394)
x#253#25                                            1 	(obj:0.00646)
x#254#37                                            1 	(obj:0.01649)
x#255#32                                            1 	(obj:0.02805)
x#256#29                                            1 	(obj:0.0238)
x#257#25                                            1 	(obj:0.00119)
x#258#26                                            1 	(obj:0.02703)
x#259#42                                            1 	(obj:0.01853)
x#260#13                                            1 	(obj:0.0068)
x#261#23                                            1 	(obj:0.00476)
x#262#39                                            1 	(obj:0.02193)
x#263#30                                            1 	(obj:0.02295)
x#264#22                                            1 	(obj:0.0051)
x#265#18                                            1 	(obj:0.01326)
x#266#29                                            1 	(obj:0.02295)
x#267#31                                            1 	(obj:0.02737)
x#268#17                                            1 	(obj:0.01428)
x#269#17                                            1 	(obj:0.01615)
x#270#23                                            1 	(obj:0.01462)
x#271#36                                            1 	(obj:0.0204)
x#272#28                                            1 	(obj:0.01122)
x#273#17                                            1 	(obj:0.01649)
x#274#33                                            1 	(obj:0.01479)
x#275#43                                            1 	(obj:0.0068)
x#276#33                                            1 	(obj:0.01258)
x#277#15                                            1 	(obj:0.00527)
x#278#26                                            1 	(obj:0.02176)
x#279#32                                            1 	(obj:0.02499)
x#280#4                                             1 	(obj:0.0085)
x#281#7                                             1 	(obj:0.01734)
x#282#32                                            1 	(obj:0.01479)
x#283#30                                            1 	(obj:0.00646)
x#284#23                                            1 	(obj:0.017)
x#285#4                                             1 	(obj:0.02261)
x#286#37                                            1 	(obj:0.00255)
x#287#15                                            1 	(obj:0.00425)
x#288#23                                            1 	(obj:0.00629)
x#289#23                                            1 	(obj:0.0255)
x#290#43                                            1 	(obj:0.02907)
x#291#40                                            1 	(obj:0.01394)
x#292#33                                            1 	(obj:0.01802)
x#293#18                                            1 	(obj:0.00952)
x#294#29                                            1 	(obj:0.02465)
x#295#24                                            1 	(obj:0.02363)
x#296#17                                            1 	(obj:0.02227)
x#297#6                                             1 	(obj:0.01819)
x#298#23                                            1 	(obj:0.02635)
x#299#32                                            1 	(obj:0.01683)
x#300#4                                             1 	(obj:0.01462)
